
1.0
6.34623976 0.00000000 0.00000000
0.00000000 12.69247952 0.00000000
0.00000000 0.00000000 12.69247952
   A   B
   32   31
Cartesian
4.75967982    1.58655994    1.58655994    A
1.58655994    1.58655994    1.58655994    A
1.58655994    4.75967982    1.58655994    A
4.75967982    4.75967982    1.58655994    A
4.75967982    7.93279970    1.58655994    A
1.58655994    7.93279970    1.58655994    A
1.58655994    11.10591958    1.58655994    A
4.75967982    11.10591958    1.58655994    A
1.58655994    4.75967982    4.75967982    A
4.75967982    4.75967982    4.75967982    A
4.75967982    7.93279970    4.75967982    A
1.58655994    7.93279970    4.75967982    A
1.58655994    11.10591958    4.75967982    A
4.75967982    11.10591958    4.75967982    A
4.75967982    1.58655994    4.75967982    A
1.58655994    1.58655994    4.75967982    A
4.75967982    7.93279970    7.93279970    A
1.58655994    7.93279970    7.93279970    A
1.58655994    11.10591958    7.93279970    A
4.75967982    11.10591958    7.93279970    A
4.75967982    1.58655994    7.93279970    A
1.58655994    1.58655994    7.93279970    A
1.58655994    4.75967982    7.93279970    A
4.75967982    4.75967982    7.93279970    A
1.58655994    11.10591958    11.10591958    A
4.75967982    11.10591958    11.10591958    A
4.75967982    1.58655994    11.10591958    A
1.58655994    1.58655994    11.10591958    A
1.58655994    4.75967982    11.10591958    A
4.75967982    4.75967982    11.10591958    A
4.75967982    7.93279970    11.10591958    A
1.58655994    7.93279970    11.10591958    A
3.17311988    0.00000000    0.00000000    B
3.17311988    3.17311988    0.00000000    B
0.00000000    3.17311988    0.00000000    B
0.00000000    6.34623976    0.00000000    B
3.17311988    6.34623976    0.00000000    B
3.17311988    9.51935964    0.00000000    B
0.00000000    9.51935964    0.00000000    B
3.17311988    3.17311988    3.17311988    B
0.00000000    3.17311988    3.17311988    B
0.00000000    6.34623976    3.17311988    B
3.17311988    6.34623976    3.17311988    B
3.17311988    9.51935964    3.17311988    B
0.00000000    9.51935964    3.17311988    B
0.00000000    0.00000000    3.17311988    B
3.17311988    0.00000000    3.17311988    B
0.00000000    6.34623976    6.34623976    B
3.17311988    6.34623976    6.34623976    B
3.17311988    9.51935964    6.34623976    B
0.00000000    9.51935964    6.34623976    B
0.00000000    0.00000000    6.34623976    B
3.17311988    0.00000000    6.34623976    B
3.17311988    3.17311988    6.34623976    B
0.00000000    3.17311988    6.34623976    B
3.17311988    9.51935964    9.51935964    B
0.00000000    9.51935964    9.51935964    B
0.00000000    0.00000000    9.51935964    B
3.17311988    0.00000000    9.51935964    B
3.17311988    3.17311988    9.51935964    B
0.00000000    3.17311988    9.51935964    B
0.00000000    6.34623976    9.51935964    B
3.17311988    6.34623976    9.51935964    B